Route #1: 75 68 30 48 74 2 33 6
Route #2: 21 47 36 37 20 70 60 71 69 61 28
Route #3: 73 62 22 64 42 41 56 23 43 1 63
Route #4: 16 49 24 18 55 25 50 32 44 3 51
Route #5: 17 40 9 39 31 72 58 12
Route #6: 10 38 65 66 11 53
Route #7: 14 59 19 54 13 27 57 15 5 29
Route #8: 26 7 35 8 46 34 52 45 67
Route #9: 4
Cost 811